0 1 1
1 1 -1
479 2 -1
482 2 1
4 2 -1
0 39 -1
43 39 1
42 39 1
41 39 1
5 43 -1
41 43 1
0 44 1
5 44 -1
6 44 -1
479 45 1
482 45 1
7 45 -1
79 83 1
0 83 -1
77 83 1
78 83 1
8 87 -1
77 87 1
6 88 1
9 88 -1
479 89 -1
10 89 -1
485 89 1
0 126 -1
114 126 1
115 126 1
116 126 1
114 130 1
11 130 -1
12 131 -1
9 131 1
13 132 -1
479 132 1
485 132 1
0 170 -1
150 170 1
151 170 1
152 170 1
150 174 1
14 174 -1
12 175 1
15 175 -1
480 176 -1
16 176 -1
483 176 1
0 213 -1
189 213 1
187 213 1
188 213 1
17 217 -1
187 217 1
17 218 -1
0 218 1
18 218 -1
480 219 1
19 219 -1
483 219 1
0 257 -1
225 257 1
224 257 1
223 257 1
20 261 -1
223 261 1
18 262 1
21 262 -1
480 263 -1
22 263 -1
486 263 1
0 300 -1
261 300 1
262 300 1
260 300 1
23 304 -1
260 304 1
24 305 -1
21 305 1
480 306 1
25 306 -1
486 306 1
297 344 1
0 344 -1
296 344 1
298 344 1
296 348 1
26 348 -1
27 349 -1
24 349 1
28 350 -1
15 350 1
481 351 -1
484 351 1
29 351 -1
334 388 1
0 388 -1
333 388 1
335 388 1
333 392 1
30 392 -1
0 393 1
31 393 -1
30 393 -1
32 394 -1
481 394 1
484 394 1
370 432 1
0 432 -1
369 432 1
371 432 1
369 436 1
33 436 -1
31 437 1
34 437 -1
487 438 1
481 438 -1
35 438 -1
0 475 -1
408 475 1
407 475 1
406 475 1
36 479 -1
406 479 1
37 480 -1
34 480 1
487 481 1
481 481 1
38 481 -1
0 519 -1
443 519 1
442 519 1
444 519 1
39 523 -1
442 523 1
37 524 1
40 524 -1
28 525 1
489 525 -1
488 526 -1
489 526 1
